54
Time limit set to 60 seconds
Running CP solver
/home/omastto1/General-Optimization-Solver/src/solvers/mmrcpsp.py:42(stream:108:6): Warning: Cumulative expression 'pulse': height is zero, expression is zero everywhere.
                                                                                               VarCumulAtom_149 = pulse(task_0_mode_0, 0)
/home/omastto1/General-Optimization-Solver/src/solvers/mmrcpsp.py:42(stream:108:1253): Warning: Cumulative expression 'pulse': height is zero, expression is zero everywhere.
                                                                                                  VarCumulAtom_198 = pulse(task_17_mode_0, 0)
/home/omastto1/General-Optimization-Solver/src/solvers/mmrcpsp.py:42(stream:109:6): Warning: Cumulative expression 'pulse': height is zero, expression is zero everywhere.
                                                                                               VarCumulAtom_202 = pulse(task_0_mode_0, 0)
/home/omastto1/General-Optimization-Solver/src/solvers/mmrcpsp.py:42(stream:109:1254): Warning: Cumulative expression 'pulse': height is zero, expression is zero everywhere.
                                                                                                  VarCumulAtom_251 = pulse(task_17_mode_0, 0)
 ! --------------------------------------------------- CP Optimizer 20.1.0.0 --
 ! Minimization problem - 69 variables, 51 constraints
 ! TimeLimit            = 60
 ! Workers              = 14
 ! LogVerbosity         = Terse
 ! Initial process time : 0.01s (0.01s extraction + 0.00s propagation)
 !  . Log search space  : 160.8 (before), 160.8 (after)
 !  . Memory usage      : 754.6 kB (before), 754.6 kB (after)
 ! Using parallel search with 14 workers.
 ! ----------------------------------------------------------------------------
 !          Best Branches  Non-fixed    W       Branch decision
                        0         69                 -
 + New bound is 27
 ! Using iterative diving.
 ! Using temporal relaxation.
 *            53       47  0.72s        1      (gap is 49.06%)
 *            43      117  0.72s        1      (gap is 37.21%)
 *            35      291  0.72s        1      (gap is 22.86%)
 *            33      943  0.72s        1      (gap is 18.18%)
 *            32     2597  0.72s        1      (gap is 15.62%)
 *            31     3418  0.72s        1      (gap is 12.90%)
 *            30      970  0.72s        3      (gap is 10.00%)
 *            29     1777  0.72s        6      (gap is 6.90%)
 ! Using failure-directed search.
 *            28    12142  2.60s        5      (gap is 3.57%)
 *            27    24502  4.42s        7      (gap is 0.00%)
 ! ----------------------------------------------------------------------------
 ! Search completed, 10 solutions found.
 ! Best objective         : 27 (optimal - effective tol. is 0)
 ! Best bound             : 27
 ! ----------------------------------------------------------------------------
 ! Number of branches     : 460474
 ! Number of fails        : 133578
 ! Total memory usage     : 10.0 MB (10.0 MB CP Optimizer + 0.1 MB Concert)
 ! Time spent in solve    : 4.81s (4.80s engine + 0.01s extraction)
 ! Search speed (br. / s) : 95932.1
 ! ----------------------------------------------------------------------------
task_0: (start=0, end=0, size=0, length=0)
Task 0 is scheduled in mode 0 from 0 to 0
task_1: (start=0, end=5, size=5, length=5)
Task 1 is scheduled in mode 2 from 0 to 5
task_2: (start=0, end=1, size=1, length=1)
Task 2 is scheduled in mode 0 from 0 to 1
task_3: (start=2, end=9, size=7, length=7)
Task 3 is scheduled in mode 1 from 2 to 9
task_4: (start=1, end=2, size=1, length=1)
Task 4 is scheduled in mode 1 from 1 to 2
task_5: (start=1, end=5, size=4, length=4)
Task 5 is scheduled in mode 1 from 1 to 5
task_6: (start=6, end=11, size=5, length=5)
Task 6 is scheduled in mode 1 from 6 to 11
task_7: (start=14, end=16, size=2, length=2)
Task 7 is scheduled in mode 0 from 14 to 16
task_8: (start=11, end=14, size=3, length=3)
Task 8 is scheduled in mode 1 from 11 to 14
task_9: (start=6, end=14, size=8, length=8)
Task 9 is scheduled in mode 1 from 6 to 14
task_10: (start=22, end=24, size=2, length=2)
Task 10 is scheduled in mode 0 from 22 to 24
task_11: (start=5, end=6, size=1, length=1)
Task 11 is scheduled in mode 0 from 5 to 6
task_12: (start=16, end=19, size=3, length=3)
Task 12 is scheduled in mode 0 from 16 to 19
task_13: (start=9, end=19, size=10, length=10)
Task 13 is scheduled in mode 1 from 9 to 19
task_14: (start=24, end=26, size=2, length=2)
Task 14 is scheduled in mode 0 from 24 to 26
task_15: (start=16, end=22, size=6, length=6)
Task 15 is scheduled in mode 2 from 16 to 22
task_16: (start=19, end=27, size=8, length=8)
Task 16 is scheduled in mode 2 from 19 to 27
task_17: (start=27, end=27, size=0, length=0)
Task 17 is scheduled in mode 0 from 27 to 27
Optimal solution found
Objective value: 27
Solution is optimal.
